
;node and network properties
(declare-const blocks.port_network_desktop-switch (Set Int))
(declare-const mounted.zfs@95$storage@95$appliance@95$kit_node_server String)
(declare-const forwards.port.880_network_desktop-switch Int)
(declare-const forwards.ip.3578893835_network_server-switch Int)
(declare-const basebox_node_router String)
(declare-const mounted_node_server (Set String))
(declare-const disk_node_desktop Int)
(declare-const owner.documents@47$market@32$strategy@46$txt_node_desktop String)
(declare-const disk_node_server Int)
(declare-const mounted.communications@95$session@95$route@95$manager_node_server String)
(declare-const owner.documents@47$notes@46$txt_node_desktop String)
(declare-const netid_network_server-switch Int)
(declare-const permission.guest.documents@47$notes@46$txt.write_node_desktop Bool)
(declare-const permission.guest.documents@47$market@32$strategy@46$txt.read_node_desktop Bool)
(declare-const directories_node_desktop (Set String))
(declare-const memory_node_server Int)
(declare-const connected.3232235791_network_server-switch String)
(declare-const users_node_server (Set String))
(declare-const type_node_router String)
(declare-const memory_node_router Int)
(declare-const mounted.hyperion@95$infrastructure@95$technology_node_server String)
(declare-const OS_node_router String)
(declare-const basebox_node_desktop String)
(declare-const disk_node_router Int)
(declare-const basebox_node_server String)
(declare-const mounted.communications@95$element@95$manager_node_server String)
(declare-const mounted.instantis@95$enterprisetrack_node_server String)
(declare-const netid_network_desktop-switch Int)
(declare-const OS_node_server String)
(declare-const password.admin_node_desktop String)
(declare-const sudoers_node_router (Set String))
(declare-const flavor_node_server String)
(declare-const netsize_network_server-switch Int)
(declare-const flavor_node_desktop String)
(declare-const internet_network_server-switch Bool)
(declare-const users_node_router (Set String))
(declare-const sudoers_node_desktop (Set String))
(declare-const scenario_name_general String)
(declare-const mounted.enterprise@95$manager@95$ops@95$center_node_server String)
(declare-const sudoers_node_server (Set String))
(declare-const users_node_desktop (Set String))
(declare-const flavor_node_router String)
(declare-const mounted_node_desktop (Set String))
(declare-const files_node_desktop (Set String))
(declare-const memory_node_desktop Int)
(declare-const connected.3232235535_network_desktop-switch String)
(declare-const mounted.http@95$server_node_server String)
(declare-const connected_network_desktop-switch (Set String))
(declare-const connected_network_server-switch (Set String))
(declare-const OS_node_desktop String)
(declare-const mounted.clustered@95$data@95$ontap_node_server String)
(declare-const mounted.communications@95$session@95$report@95$manager_node_server String)
(declare-const netsize_network_desktop-switch Int)
(declare-const blocks.ip_network_server-switch (Set Int))

;assertions from user statements
(assert(and (str.<= "kali" OS_node_desktop) (str.< OS_node_desktop "kalj")))
(assert(= "kali" password.admin_node_desktop))
(assert(set.member "admin" sudoers_node_desktop))
(assert(set.member "guest" users_node_desktop))
(assert(= "admin" owner.documents@47$market@32$strategy@46$txt_node_desktop))
(assert(not (= permission.guest.documents@47$market@32$strategy@46$txt.read_node_desktop true)))
(assert(= "guest" owner.documents@47$notes@46$txt_node_desktop))
(assert(not (= permission.guest.documents@47$notes@46$txt.write_node_desktop true)))
(assert(set.member "nghttp2-client" mounted_node_desktop))
(assert(= type_node_router "router"))
(assert(= OS_node_router OS_node_desktop))
(assert(> memory_node_router 1000000000))
(assert(set.member "admin" users_node_router))
(assert(set.member "admin" sudoers_node_router))
(assert(set.member "admin" users_node_server))
(assert(set.member "admin" sudoers_node_server))
(assert(and (str.<= "ubuntu" OS_node_server) (str.< OS_node_server "ubuntv")))
(assert(or (or (= "Unknown" "Software" "fedora") (= "Unknown" "Software" "fedora")) (or (= "Unknown" "Software" "leap") (= "Unknown" "Software" "leap")) (= "Unknown" "Software" "debian_linux") (or (= "Unknown" "Software" "ubuntu_linux") (= "Unknown" "Software" "ubuntu_linux") (= "Unknown" "Software" "ubuntu_linux")) (and (str.<= "@2@4@@20" mounted.http@95$server_node_server) (str.< mounted.http@95$server_node_server "@2@4@@44")) (or (= "Unknown" "Software" "instantis_enterprisetrack") (= "Unknown" "Software" "communications_session_report_manager") (= "Unknown" "Software" "communications_session_route_manager") (= "Unknown" "Software" "instantis_enterprisetrack") (= "Unknown" "Software" "enterprise_manager_ops_center") (= "Unknown" "Software" "instantis_enterprisetrack") (= "Unknown" "Software" "hyperion_infrastructure_technology") (= "Unknown" "Software" "zfs_storage_appliance_kit") (= "Unknown" "Software" "communications_element_manager")) (= "Unknown" "Software" "clustered_data_ontap")))
(assert(and (= netid_network_server-switch 3232235776) (= netsize_network_server-switch 128) (<= (set.card connected_network_server-switch) (- netsize_network_server-switch 2))))
(assert(= connected.3232235791_network_server-switch "server"))
(assert(set.member "router" connected_network_server-switch))
(assert(= 3274816674 forwards.ip.3578893835_network_server-switch))
(assert(set.member 2461941287 blocks.ip_network_server-switch))
(assert(= internet_network_server-switch true))
(assert(and (= netid_network_desktop-switch 3232235520) (= netsize_network_desktop-switch 256) (<= (set.card connected_network_desktop-switch) (- netsize_network_desktop-switch 2))))
(assert(= connected.3232235535_network_desktop-switch "desktop"))
(assert(set.member "router" connected_network_desktop-switch))
(assert(set.member 22 blocks.port_network_desktop-switch))
(assert(= 8080 forwards.port.880_network_desktop-switch))
(assert(= "vuln-apache-dos" scenario_name_general))

;statements implied by assertions
(assert(=> (= "kali" password.admin_node_desktop) (set.member "admin" users_node_desktop)))
(assert(=> (set.member "admin" sudoers_node_desktop) (set.member "admin" users_node_desktop)))
(assert(=> (set.member "documents/market strategy.txt" files_node_desktop) (= (set.insert "documents"  directories_node_desktop) directories_node_desktop)))
(assert(=> (= "admin" owner.documents@47$market@32$strategy@46$txt_node_desktop) (and (set.member "admin" users_node_desktop) (set.member "documents/market strategy.txt" files_node_desktop))))
(assert(=> (= permission.guest.documents@47$market@32$strategy@46$txt.read_node_desktop true) (and (set.member "guest" users_node_desktop) (or (set.member "documents/market strategy.txt" files_node_desktop) (set.member "documents/market strategy.txt" directories_node_desktop)))))
(assert(=> (set.member "documents/notes.txt" files_node_desktop) (= (set.insert "documents"  directories_node_desktop) directories_node_desktop)))
(assert(=> (= "guest" owner.documents@47$notes@46$txt_node_desktop) (and (set.member "guest" users_node_desktop) (set.member "documents/notes.txt" files_node_desktop))))
(assert(=> (= permission.guest.documents@47$notes@46$txt.write_node_desktop true) (and (set.member "guest" users_node_desktop) (or (set.member "documents/notes.txt" files_node_desktop) (set.member "documents/notes.txt" directories_node_desktop)))))
(assert(=> (set.member "admin" sudoers_node_router) (set.member "admin" users_node_router)))
(assert(=> (set.member "admin" sudoers_node_server) (set.member "admin" users_node_server)))
(assert(=> (and (str.<= "@2@4@@20" mounted.http@95$server_node_server) (str.< mounted.http@95$server_node_server "@2@4@@44")) (set.member "http_server" mounted_node_server)))
(assert(=> (= "Unknown" "Software" "instantis_enterprisetrack") (set.member "instantis_enterprisetrack" mounted_node_server)))
(assert(=> (= "Unknown" "Software" "communications_session_report_manager") (set.member "communications_session_report_manager" mounted_node_server)))
(assert(=> (= "Unknown" "Software" "communications_session_route_manager") (set.member "communications_session_route_manager" mounted_node_server)))
(assert(=> (= "Unknown" "Software" "enterprise_manager_ops_center") (set.member "enterprise_manager_ops_center" mounted_node_server)))
(assert(=> (= "Unknown" "Software" "hyperion_infrastructure_technology") (set.member "hyperion_infrastructure_technology" mounted_node_server)))
(assert(=> (= "Unknown" "Software" "zfs_storage_appliance_kit") (set.member "zfs_storage_appliance_kit" mounted_node_server)))
(assert(=> (= "Unknown" "Software" "communications_element_manager") (set.member "communications_element_manager" mounted_node_server)))
(assert(=> (= "Unknown" "Software" "clustered_data_ontap") (set.member "clustered_data_ontap" mounted_node_server)))
(assert(=> (= connected.3232235791_network_server-switch "server") (and (set.member "server" connected_network_server-switch) (< netid_network_server-switch 3232235791 (+ netid_network_server-switch netsize_network_server-switch -1)))))
(assert(=> (= connected.3232235535_network_desktop-switch "desktop") (and (set.member "desktop" connected_network_desktop-switch) (< netid_network_desktop-switch 3232235535 (+ netid_network_desktop-switch netsize_network_desktop-switch -1)))))

;enviromental properties
(declare-const type_limit_allowed (Set String))
(declare-const BaseBoxes_limit_allowed (Set String))
(declare-fun OS_getter (String) String)
(declare-const flavor_limit_allowed (Set String))
(declare-fun memory_getter (String) Int)
(declare-fun disk_getter (String) Int)

;environmental limits
(assert(<=  disk_node_desktop 32000000000))
(assert(<=  disk_node_server 32000000000))
(assert(<=  disk_node_router 32000000000))
(assert(<=  (+ 0 disk_node_desktop disk_node_server disk_node_router) 180000000000))
(assert(<=  memory_node_server 2000000000))
(assert(<=  memory_node_router 2000000000))
(assert(<=  memory_node_desktop 2000000000))
(assert(<=  (+ 0 memory_node_server memory_node_router memory_node_desktop) 8000000000))
(assert(= (set.card type_limit_allowed) 2))
(assert(= (set.insert "router" "compute"  type_limit_allowed) type_limit_allowed))
(assert(= (set.insert type_node_router  type_limit_allowed) type_limit_allowed))
(assert(= (set.card BaseBoxes_limit_allowed) 2))
(assert(= (set.insert "ubuntu-22.04" "kali"  BaseBoxes_limit_allowed) BaseBoxes_limit_allowed))
(assert(= (set.insert basebox_node_router basebox_node_desktop basebox_node_server  BaseBoxes_limit_allowed) BaseBoxes_limit_allowed))
(assert(= "ubuntu-@@22@@04" (OS_getter "ubuntu-22.04")))
(assert(= "kali" (OS_getter "kali")))
(assert(= OS_node_router (OS_getter basebox_node_router)))
(assert(= OS_node_desktop (OS_getter basebox_node_desktop)))
(assert(= OS_node_server (OS_getter basebox_node_server)))
(assert(= (set.card flavor_limit_allowed) 2))
(assert(= (set.insert "csirtmu.tiny1x2" "csirtmu.tiny1x4"  flavor_limit_allowed) flavor_limit_allowed))
(assert(= (set.insert flavor_node_server flavor_node_desktop flavor_node_router  flavor_limit_allowed) flavor_limit_allowed))
(assert(= 2000000000 (memory_getter "csirtmu.tiny1x2")))
(assert(= 4000000000 (memory_getter "csirtmu.tiny1x4")))
(assert(= memory_node_server (memory_getter flavor_node_server)))
(assert(= memory_node_desktop (memory_getter flavor_node_desktop)))
(assert(= memory_node_router (memory_getter flavor_node_router)))
(assert(= 20000000000 (disk_getter "csirtmu.tiny1x2")))
(assert(= 20000000000 (disk_getter "csirtmu.tiny1x4")))
(assert(= disk_node_desktop (disk_getter flavor_node_desktop)))
(assert(= disk_node_server (disk_getter flavor_node_server)))
(assert(= disk_node_router (disk_getter flavor_node_router)))
(assert(=> (set.member "zfs_storage_appliance_kit" mounted_node_server) (set.member mounted.zfs@95$storage@95$appliance@95$kit_node_server (as set.empty (Set String)))))
(assert(=> (set.member "communications_session_route_manager" mounted_node_server) (set.member mounted.communications@95$session@95$route@95$manager_node_server (as set.empty (Set String)))))
(assert(=> (set.member "hyperion_infrastructure_technology" mounted_node_server) (set.member mounted.hyperion@95$infrastructure@95$technology_node_server (as set.empty (Set String)))))
(assert(=> (set.member "communications_element_manager" mounted_node_server) (set.member mounted.communications@95$element@95$manager_node_server (as set.empty (Set String)))))
(assert(=> (set.member "instantis_enterprisetrack" mounted_node_server) (set.member mounted.instantis@95$enterprisetrack_node_server (as set.empty (Set String)))))
(assert(=> (set.member "enterprise_manager_ops_center" mounted_node_server) (set.member mounted.enterprise@95$manager@95$ops@95$center_node_server (as set.empty (Set String)))))
(assert(=> (set.member "http_server" mounted_node_server) (set.member mounted.http@95$server_node_server (set.insert "@@@@@@latest" "@2@4@@34"  (as set.empty (Set String))))))
(assert (=> (= mounted.http@95$server_node_server "@@@@@@latest") (set.member basebox_node_server (set.insert "munikypo/kali-2020.4"  (as set.empty (Set String))))))
(assert(=> (set.member "clustered_data_ontap" mounted_node_server) (set.member mounted.clustered@95$data@95$ontap_node_server (as set.empty (Set String)))))
(assert(=> (set.member "communications_session_report_manager" mounted_node_server) (set.member mounted.communications@95$session@95$report@95$manager_node_server (as set.empty (Set String)))))
